NAME : tsp40_11.200.tour
COMMENT : Length = 200
COMMENT : Found by LKH [Keld Helsgaun]
TYPE : TOUR
DIMENSION : 40
TOUR_SECTION
1
18
10
27
14
12
30
15
22
25
5
8
39
19
40
29
34
3
7
23
6
36
32
28
16
11
4
13
26
2
33
20
38
17
9
31
35
24
37
21
-1
EOF
